NAME : optical-integer.pruned_local_8.-15452440.tour
COMMENT : Length = -15452440
TYPE : TOUR
DIMENSION : 174
TOUR_SECTION
166
161
162
163
164
160
157
156
154
150
148
144
143
142
147
145
146
149
152
151
153
155
158
174
141
140
139
138
97
137
132
133
134
130
128
122
119
48
103
111
98
136
94
92
90
88
51
49
46
44
42
40
38
36
34
32
30
28
26
24
22
20
18
16
14
12
10
8
6
7
9
11
13
15
17
19
21
23
25
27
29
31
33
35
37
5
4
3
1
2
39
41
43
45
47
50
52
53
54
86
84
82
80
78
76
74
72
70
68
66
64
62
60
58
56
55
57
59
61
63
65
67
69
71
73
75
77
79
81
83
85
87
89
91
93
95
96
107
109
104
105
108
112
113
114
115
102
120
117
101
129
99
165
173
127
135
169
131
100
106
110
118
116
121
123
124
125
126
159
167
168
172
171
170
-1
EOF
